Cs2 Na1 Sb1 Cl6                         
   1.00000000000000     
     5.8981080054100001    5.8981080054100001    0.0000000000000000
     5.8981080054100001    0.0000000000000000   -5.8981080054100001
     0.0000000000000000    5.8981080054100001   -5.8981080054100001
   Cs   I    Ag   Ga
     2     6     1     1
Direct
  0.0000000000000000  0.0000000000000000  0.0000000000000000
  0.5000000000000000  0.5000000000000000  0.5000000000000000
  0.5064386314059988  0.5064386314059988  0.9935613685940012
  0.5064386314059988  0.9935613685940012  0.5064386314059988
  0.5064386314059988  0.9935613685940012  0.9935613685940012
  0.9935613685940012  0.9935613685940012  0.5064386314059988
  0.9935613685940012  0.5064386314059988  0.9935613685940012
  0.9935613685940012  0.5064386314059988  0.5064386314059988
  0.2500000000000000  0.2500000000000000  0.2500000000000000
  0.7500000000000000  0.7500000000000000  0.7500000000000000
 
  0.00000000E+00  0.00000000E+00  0.00000000E+00
  0.00000000E+00  0.00000000E+00  0.00000000E+00
  0.00000000E+00  0.00000000E+00  0.00000000E+00
  0.00000000E+00  0.00000000E+00  0.00000000E+00
  0.00000000E+00  0.00000000E+00  0.00000000E+00
  0.00000000E+00  0.00000000E+00  0.00000000E+00
  0.00000000E+00  0.00000000E+00  0.00000000E+00
  0.00000000E+00  0.00000000E+00  0.00000000E+00
  0.00000000E+00  0.00000000E+00  0.00000000E+00
  0.00000000E+00  0.00000000E+00  0.00000000E+00
