Cs2 Na1 Sb1 Cl6                         
   1.00000000000000     
     5.6101626966999998    5.6101626966999998    0.0000000000000000
     5.6101626966999998    0.0000000000000000   -5.6101626966999998
     0.0000000000000000    5.6101626966999998   -5.6101626966999998
   Cs   Br   Ag   In
     2     6     1     1
Direct
  0.0000000000000000  0.0000000000000000  0.0000000000000000
  0.5000000000000000  0.5000000000000000  0.5000000000000000
  0.5059657155429989  0.5059657155429989  0.9940342844570011
  0.5059657155429989  0.9940342844570011  0.5059657155429989
  0.5059657155429989  0.9940342844570011  0.9940342844570011
  0.9940342844570011  0.9940342844570011  0.5059657155429989
  0.9940342844570011  0.5059657155429989  0.9940342844570011
  0.9940342844570011  0.5059657155429989  0.5059657155429989
  0.2500000000000000  0.2500000000000000  0.2500000000000000
  0.7500000000000000  0.7500000000000000  0.7500000000000000
 
  0.00000000E+00  0.00000000E+00  0.00000000E+00
  0.00000000E+00  0.00000000E+00  0.00000000E+00
  0.00000000E+00  0.00000000E+00  0.00000000E+00
  0.00000000E+00  0.00000000E+00  0.00000000E+00
  0.00000000E+00  0.00000000E+00  0.00000000E+00
  0.00000000E+00  0.00000000E+00  0.00000000E+00
  0.00000000E+00  0.00000000E+00  0.00000000E+00
  0.00000000E+00  0.00000000E+00  0.00000000E+00
  0.00000000E+00  0.00000000E+00  0.00000000E+00
  0.00000000E+00  0.00000000E+00  0.00000000E+00
