Cs2 Na1 Sb1 Cl6                         
   1.00000000000000     
     5.3007875432000002    5.3007875432000002    0.0000000000000000
     5.3007875432000002    0.0000000000000000   -5.3007875432000002
     0.0000000000000000    5.3007875432000002   -5.3007875432000002
   Ga   Cu   Br   Rb
     1     1     6     2
Direct
  0.7500000000000000  0.7500000000000000  0.7500000000000000
  0.2500000000000000  0.2500000000000000  0.2500000000000000
  0.5016438304419992  0.5016438304419992  0.9983561695580008
  0.5016438304419992  0.9983561695580008  0.5016438304419992
  0.5016438304419992  0.9983561695580008  0.9983561695580008
  0.9983561695580008  0.9983561695580008  0.5016438304419992
  0.9983561695580008  0.5016438304419992  0.9983561695580008
  0.9983561695580008  0.5016438304419992  0.5016438304419992
  0.0000000000000000  0.0000000000000000  0.0000000000000000
  0.5000000000000000  0.5000000000000000  0.5000000000000000
 
  0.00000000E+00  0.00000000E+00  0.00000000E+00
  0.00000000E+00  0.00000000E+00  0.00000000E+00
  0.00000000E+00  0.00000000E+00  0.00000000E+00
  0.00000000E+00  0.00000000E+00  0.00000000E+00
  0.00000000E+00  0.00000000E+00  0.00000000E+00
  0.00000000E+00  0.00000000E+00  0.00000000E+00
  0.00000000E+00  0.00000000E+00  0.00000000E+00
  0.00000000E+00  0.00000000E+00  0.00000000E+00
  0.00000000E+00  0.00000000E+00  0.00000000E+00
  0.00000000E+00  0.00000000E+00  0.00000000E+00
