Cs2 Na1 Sb1 Cl6                         
   1.00000000000000     
     5.4215754659000002    5.4215754659000002    0.0000000000000000
     5.4215754659000002    0.0000000000000000   -5.4215754659000002
     0.0000000000000000    5.4215754659000002   -5.4215754659000002
   Cu   Br   Rb   In
     1     6     2     1
Direct
  0.2500000000000000  0.2500000000000000  0.2500000000000000
  0.4953310853420021  0.4953310853420021  0.0046689146583816
  0.4953310853420021  0.0046689146583816  0.4953310853420021
  0.4953310853420021  0.0046689146583816  0.0046689146583816
  0.0046689146583816  0.0046689146583816  0.4953310853420021
  0.0046689146583816  0.4953310853420021  0.0046689146583816
  0.0046689146583816  0.4953310853420021  0.4953310853420021
  0.0000000000000000  0.0000000000000000  0.0000000000000000
  0.5000000000000000  0.5000000000000000  0.5000000000000000
  0.7500000000000000  0.7500000000000000  0.7500000000000000
 
  0.00000000E+00  0.00000000E+00  0.00000000E+00
  0.00000000E+00  0.00000000E+00  0.00000000E+00
  0.00000000E+00  0.00000000E+00  0.00000000E+00
  0.00000000E+00  0.00000000E+00  0.00000000E+00
  0.00000000E+00  0.00000000E+00  0.00000000E+00
  0.00000000E+00  0.00000000E+00  0.00000000E+00
  0.00000000E+00  0.00000000E+00  0.00000000E+00
  0.00000000E+00  0.00000000E+00  0.00000000E+00
  0.00000000E+00  0.00000000E+00  0.00000000E+00
  0.00000000E+00  0.00000000E+00  0.00000000E+00
