Cs2 Na1 Sb1 Cl6                         
   1.00000000000000     
     5.2872317472599999    5.2872317472599999    0.0000000000000000
     5.2872317472599999    0.0000000000000000   -5.2872317472599999
     0.0000000000000000    5.2872317472599999   -5.2872317472599999
   In   Ag   Rb   Cl
     1     1     2     6
Direct
  0.7500000000000000  0.7500000000000000  0.7500000000000000
  0.2500000000000000  0.2500000000000000  0.2500000000000000
  0.0000000000000000  0.0000000000000000  0.0000000000000000
  0.5000000000000000  0.5000000000000000  0.5000000000000000
  0.5076623724400022  0.5076623724400022  0.9923376275599978
  0.5076623724400022  0.9923376275599978  0.5076623724400022
  0.5076623724400022  0.9923376275599978  0.9923376275599978
  0.9923376275599978  0.9923376275599978  0.5076623724400022
  0.9923376275599978  0.5076623724400022  0.9923376275599978
  0.9923376275599978  0.5076623724400022  0.5076623724400022
 
  0.00000000E+00  0.00000000E+00  0.00000000E+00
  0.00000000E+00  0.00000000E+00  0.00000000E+00
  0.00000000E+00  0.00000000E+00  0.00000000E+00
  0.00000000E+00  0.00000000E+00  0.00000000E+00
  0.00000000E+00  0.00000000E+00  0.00000000E+00
  0.00000000E+00  0.00000000E+00  0.00000000E+00
  0.00000000E+00  0.00000000E+00  0.00000000E+00
  0.00000000E+00  0.00000000E+00  0.00000000E+00
  0.00000000E+00  0.00000000E+00  0.00000000E+00
  0.00000000E+00  0.00000000E+00  0.00000000E+00
