Cs2 Na1 Sb1 Cl6                         
   1.00000000000000     
     5.4398633388900004    5.4398633388900004    0.0000000000000000
     5.4398633388900004    0.0000000000000000   -5.4398633388900004
     0.0000000000000000    5.4398633388900004   -5.4398633388900004
   Rb   Br   Ga   Ag
     2     6     1     1
Direct
  0.0000000000000000  0.0000000000000000  0.0000000000000000
  0.5000000000000000  0.5000000000000000  0.5000000000000000
  0.5117783553110016  0.5117783553110016  0.9882216446889984
  0.5117783553110016  0.9882216446889984  0.5117783553110016
  0.5117783553110016  0.9882216446889984  0.9882216446889984
  0.9882216446889984  0.9882216446889984  0.5117783553110016
  0.9882216446889984  0.5117783553110016  0.9882216446889984
  0.9882216446889984  0.5117783553110016  0.5117783553110016
  0.7500000000000000  0.7500000000000000  0.7500000000000000
  0.2500000000000000  0.2500000000000000  0.2500000000000000
 
  0.00000000E+00  0.00000000E+00  0.00000000E+00
  0.00000000E+00  0.00000000E+00  0.00000000E+00
  0.00000000E+00  0.00000000E+00  0.00000000E+00
  0.00000000E+00  0.00000000E+00  0.00000000E+00
  0.00000000E+00  0.00000000E+00  0.00000000E+00
  0.00000000E+00  0.00000000E+00  0.00000000E+00
  0.00000000E+00  0.00000000E+00  0.00000000E+00
  0.00000000E+00  0.00000000E+00  0.00000000E+00
  0.00000000E+00  0.00000000E+00  0.00000000E+00
  0.00000000E+00  0.00000000E+00  0.00000000E+00
