Cs2 Na1 Sb1 Cl6                         
   1.00000000000000     
     5.8546185177099996    5.8546185177099996    0.0000000000000000
     5.8546185177099996    0.0000000000000000   -5.8546185177099996
     0.0000000000000000    5.8546185177099996   -5.8546185177099996
   I    Rb   Cu   In
     6     2     1     1
Direct
  0.4934547381430008  0.4934547381430008  0.0065452618563810
  0.4934547381430008  0.0065452618563810  0.4934547381430008
  0.4934547381430008  0.0065452618563810  0.0065452618563810
  0.0065452618563810  0.0065452618563810  0.4934547381430008
  0.0065452618563810  0.4934547381430008  0.0065452618563810
  0.0065452618563810  0.4934547381430008  0.4934547381430008
  0.0000000000000000  0.0000000000000000  0.0000000000000000
  0.5000000000000000  0.5000000000000000  0.5000000000000000
  0.2500000000000000  0.2500000000000000  0.2500000000000000
  0.7500000000000000  0.7500000000000000  0.7500000000000000
 
  0.00000000E+00  0.00000000E+00  0.00000000E+00
  0.00000000E+00  0.00000000E+00  0.00000000E+00
  0.00000000E+00  0.00000000E+00  0.00000000E+00
  0.00000000E+00  0.00000000E+00  0.00000000E+00
  0.00000000E+00  0.00000000E+00  0.00000000E+00
  0.00000000E+00  0.00000000E+00  0.00000000E+00
  0.00000000E+00  0.00000000E+00  0.00000000E+00
  0.00000000E+00  0.00000000E+00  0.00000000E+00
  0.00000000E+00  0.00000000E+00  0.00000000E+00
  0.00000000E+00  0.00000000E+00  0.00000000E+00
