Cs2 Na1 Sb1 Cl6                         
   1.00000000000000     
     5.5687378224600002    5.5687378224600002    0.0000000000000000
     5.5687378224600002    0.0000000000000000   -5.5687378224600002
     0.0000000000000000    5.5687378224600002   -5.5687378224600002
   Rb   Br   Ag   In
     2     6     1     1
Direct
  0.0000000000000000  0.0000000000000000  0.0000000000000000
  0.5000000000000000  0.5000000000000000  0.5000000000000000
  0.5051967934919972  0.5051967934919972  0.9948032065080028
  0.5051967934919972  0.9948032065080028  0.5051967934919972
  0.5051967934919972  0.9948032065080028  0.9948032065080028
  0.9948032065080028  0.9948032065080028  0.5051967934919972
  0.9948032065080028  0.5051967934919972  0.9948032065080028
  0.9948032065080028  0.5051967934919972  0.5051967934919972
  0.2500000000000000  0.2500000000000000  0.2500000000000000
  0.7500000000000000  0.7500000000000000  0.7500000000000000
 
  0.00000000E+00  0.00000000E+00  0.00000000E+00
  0.00000000E+00  0.00000000E+00  0.00000000E+00
  0.00000000E+00  0.00000000E+00  0.00000000E+00
  0.00000000E+00  0.00000000E+00  0.00000000E+00
  0.00000000E+00  0.00000000E+00  0.00000000E+00
  0.00000000E+00  0.00000000E+00  0.00000000E+00
  0.00000000E+00  0.00000000E+00  0.00000000E+00
  0.00000000E+00  0.00000000E+00  0.00000000E+00
  0.00000000E+00  0.00000000E+00  0.00000000E+00
  0.00000000E+00  0.00000000E+00  0.00000000E+00
