Cs2 Na1 Sb1 Cl6                         
   1.00000000000000     
     5.2144157485799996    5.2144157485799996    0.0000000000000000
     5.2144157485799996    0.0000000000000000   -5.2144157485799996
     0.0000000000000000    5.2144157485799996   -5.2144157485799996
   Cs   Ag   Ga   Cl
     2     1     1     6
Direct
  0.0000000000000000  0.0000000000000000  0.0000000000000000
  0.5000000000000000  0.5000000000000000  0.5000000000000000
  0.2500000000000000  0.2500000000000000  0.2500000000000000
  0.7500000000000000  0.7500000000000000  0.7500000000000000
  0.5173948548150022  0.5173948548150022  0.9826051451849978
  0.5173948548150022  0.9826051451849978  0.5173948548150022
  0.5173948548150022  0.9826051451849978  0.9826051451849978
  0.9826051451849978  0.9826051451849978  0.5173948548150022
  0.9826051451849978  0.5173948548150022  0.9826051451849978
  0.9826051451849978  0.5173948548150022  0.5173948548150022
 
  0.00000000E+00  0.00000000E+00  0.00000000E+00
  0.00000000E+00  0.00000000E+00  0.00000000E+00
  0.00000000E+00  0.00000000E+00  0.00000000E+00
  0.00000000E+00  0.00000000E+00  0.00000000E+00
  0.00000000E+00  0.00000000E+00  0.00000000E+00
  0.00000000E+00  0.00000000E+00  0.00000000E+00
  0.00000000E+00  0.00000000E+00  0.00000000E+00
  0.00000000E+00  0.00000000E+00  0.00000000E+00
  0.00000000E+00  0.00000000E+00  0.00000000E+00
  0.00000000E+00  0.00000000E+00  0.00000000E+00
