Cs2 Na1 Sb1 Cl6                         
   1.00000000000000     
     5.8601657982499997    5.8601657982499997    0.0000000000000000
     5.8601657982499997    0.0000000000000000   -5.8601657982499997
     0.0000000000000000    5.8601657982499997   -5.8601657982499997
   I    Rb   Ag   Ga
     6     2     1     1
Direct
  0.5060901791269998  0.5060901791269998  0.9939098208730002
  0.5060901791269998  0.9939098208730002  0.5060901791269998
  0.5060901791269998  0.9939098208730002  0.9939098208730002
  0.9939098208730002  0.9939098208730002  0.5060901791269998
  0.9939098208730002  0.5060901791269998  0.9939098208730002
  0.9939098208730002  0.5060901791269998  0.5060901791269998
  0.0000000000000000  0.0000000000000000  0.0000000000000000
  0.5000000000000000  0.5000000000000000  0.5000000000000000
  0.2500000000000000  0.2500000000000000  0.2500000000000000
  0.7500000000000000  0.7500000000000000  0.7500000000000000
 
  0.00000000E+00  0.00000000E+00  0.00000000E+00
  0.00000000E+00  0.00000000E+00  0.00000000E+00
  0.00000000E+00  0.00000000E+00  0.00000000E+00
  0.00000000E+00  0.00000000E+00  0.00000000E+00
  0.00000000E+00  0.00000000E+00  0.00000000E+00
  0.00000000E+00  0.00000000E+00  0.00000000E+00
  0.00000000E+00  0.00000000E+00  0.00000000E+00
  0.00000000E+00  0.00000000E+00  0.00000000E+00
  0.00000000E+00  0.00000000E+00  0.00000000E+00
  0.00000000E+00  0.00000000E+00  0.00000000E+00
