Cs2 Na1 Sb1 Cl6                         
   1.00000000000000     
     5.3381935459700003    5.3381935459700003    0.0000000000000000
     5.3381935459700003    0.0000000000000000   -5.3381935459700003
     0.0000000000000000    5.3381935459700003   -5.3381935459700003
   Cs   In   Ag   Cl
     2     1     1     6
Direct
  0.0000000000000000  0.0000000000000000  0.0000000000000000
  0.5000000000000000  0.5000000000000000  0.5000000000000000
  0.7500000000000000  0.7500000000000000  0.7500000000000000
  0.2500000000000000  0.2500000000000000  0.2500000000000000
  0.5088853176020010  0.5088853176020010  0.9911146823979990
  0.5088853176020010  0.9911146823979990  0.5088853176020010
  0.5088853176020010  0.9911146823979990  0.9911146823979990
  0.9911146823979990  0.9911146823979990  0.5088853176020010
  0.9911146823979990  0.5088853176020010  0.9911146823979990
  0.9911146823979990  0.5088853176020010  0.5088853176020010
 
  0.00000000E+00  0.00000000E+00  0.00000000E+00
  0.00000000E+00  0.00000000E+00  0.00000000E+00
  0.00000000E+00  0.00000000E+00  0.00000000E+00
  0.00000000E+00  0.00000000E+00  0.00000000E+00
  0.00000000E+00  0.00000000E+00  0.00000000E+00
  0.00000000E+00  0.00000000E+00  0.00000000E+00
  0.00000000E+00  0.00000000E+00  0.00000000E+00
  0.00000000E+00  0.00000000E+00  0.00000000E+00
  0.00000000E+00  0.00000000E+00  0.00000000E+00
  0.00000000E+00  0.00000000E+00  0.00000000E+00
