Cs2 Na1 Sb1 Cl6                         
   1.00000000000000     
     5.7863014389299998    5.7863014389299998    0.0000000000000000
     5.7863014389299998    0.0000000000000000   -5.7863014389299998
     0.0000000000000000    5.7863014389299998   -5.7863014389299998
   Cs   I    Ga   Cu
     2     6     1     1
Direct
  0.0000000000000000  0.0000000000000000  0.0000000000000000
  0.5000000000000000  0.5000000000000000  0.5000000000000000
  0.4977331870080022  0.4977331870080022  0.0022668129921826
  0.4977331870080022  0.0022668129921826  0.4977331870080022
  0.4977331870080022  0.0022668129921826  0.0022668129921826
  0.0022668129921826  0.0022668129921826  0.4977331870080022
  0.0022668129921826  0.4977331870080022  0.0022668129921826
  0.0022668129921826  0.4977331870080022  0.4977331870080022
  0.7500000000000000  0.7500000000000000  0.7500000000000000
  0.2500000000000000  0.2500000000000000  0.2500000000000000
 
  0.00000000E+00  0.00000000E+00  0.00000000E+00
  0.00000000E+00  0.00000000E+00  0.00000000E+00
  0.00000000E+00  0.00000000E+00  0.00000000E+00
  0.00000000E+00  0.00000000E+00  0.00000000E+00
  0.00000000E+00  0.00000000E+00  0.00000000E+00
  0.00000000E+00  0.00000000E+00  0.00000000E+00
  0.00000000E+00  0.00000000E+00  0.00000000E+00
  0.00000000E+00  0.00000000E+00  0.00000000E+00
  0.00000000E+00  0.00000000E+00  0.00000000E+00
  0.00000000E+00  0.00000000E+00  0.00000000E+00
