Cs2 Na1 Sb1 Cl6                         
   1.00000000000000     
     5.0701351978700000    5.0701351978700000    0.0000000000000000
     5.0701351978700000    0.0000000000000000   -5.0701351978700000
     0.0000000000000000    5.0701351978700000   -5.0701351978700000
   Cs   Ga   Cu   Cl
     2     1     1     6
Direct
  0.0000000000000000  0.0000000000000000  0.0000000000000000
  0.5000000000000000  0.5000000000000000  0.5000000000000000
  0.7500000000000000  0.7500000000000000  0.7500000000000000
  0.2500000000000000  0.2500000000000000  0.2500000000000000
  0.5065271053089972  0.5065271053089972  0.9934728946910028
  0.5065271053089972  0.9934728946910028  0.5065271053089972
  0.5065271053089972  0.9934728946910028  0.9934728946910028
  0.9934728946910028  0.9934728946910028  0.5065271053089972
  0.9934728946910028  0.5065271053089972  0.9934728946910028
  0.9934728946910028  0.5065271053089972  0.5065271053089972
 
  0.00000000E+00  0.00000000E+00  0.00000000E+00
  0.00000000E+00  0.00000000E+00  0.00000000E+00
  0.00000000E+00  0.00000000E+00  0.00000000E+00
  0.00000000E+00  0.00000000E+00  0.00000000E+00
  0.00000000E+00  0.00000000E+00  0.00000000E+00
  0.00000000E+00  0.00000000E+00  0.00000000E+00
  0.00000000E+00  0.00000000E+00  0.00000000E+00
  0.00000000E+00  0.00000000E+00  0.00000000E+00
  0.00000000E+00  0.00000000E+00  0.00000000E+00
  0.00000000E+00  0.00000000E+00  0.00000000E+00
