Cs2 Na1 Sb1 Cl6                         
   1.00000000000000     
     5.1247797917400000    5.1247797917400000    0.0000000000000000
     5.1247797917400000    0.0000000000000000   -5.1247797917400000
     0.0000000000000000    5.1247797917400000   -5.1247797917400000
   Cl   Rb   Cu   In
     6     2     1     1
Direct
  0.4968649957639997  0.4968649957639997  0.0031350042361993
  0.4968649957639997  0.0031350042361993  0.4968649957639997
  0.4968649957639997  0.0031350042361993  0.0031350042361993
  0.0031350042361993  0.0031350042361993  0.4968649957639997
  0.0031350042361993  0.4968649957639997  0.0031350042361993
  0.0031350042361993  0.4968649957639997  0.4968649957639997
  0.0000000000000000  0.0000000000000000  0.0000000000000000
  0.5000000000000000  0.5000000000000000  0.5000000000000000
  0.2500000000000000  0.2500000000000000  0.2500000000000000
  0.7500000000000000  0.7500000000000000  0.7500000000000000
 
  0.00000000E+00  0.00000000E+00  0.00000000E+00
  0.00000000E+00  0.00000000E+00  0.00000000E+00
  0.00000000E+00  0.00000000E+00  0.00000000E+00
  0.00000000E+00  0.00000000E+00  0.00000000E+00
  0.00000000E+00  0.00000000E+00  0.00000000E+00
  0.00000000E+00  0.00000000E+00  0.00000000E+00
  0.00000000E+00  0.00000000E+00  0.00000000E+00
  0.00000000E+00  0.00000000E+00  0.00000000E+00
  0.00000000E+00  0.00000000E+00  0.00000000E+00
  0.00000000E+00  0.00000000E+00  0.00000000E+00
