Cs2 Na1 Sb1 Cl6                         
   1.00000000000000     
     4.9960012512900001    4.9960012512900001    0.0000000000000000
     4.9960012512900001    0.0000000000000000   -4.9960012512900001
     0.0000000000000000    4.9960012512900001   -4.9960012512900001
   Ga   Cu   Rb   Cl
     1     1     2     6
Direct
  0.7500000000000000  0.7500000000000000  0.7500000000000000
  0.2500000000000000  0.2500000000000000  0.2500000000000000
  0.0000000000000000  0.0000000000000000  0.0000000000000000
  0.5000000000000000  0.5000000000000000  0.5000000000000000
  0.5049606014819972  0.5049606014819972  0.9950393985180028
  0.5049606014819972  0.9950393985180028  0.5049606014819972
  0.5049606014819972  0.9950393985180028  0.9950393985180028
  0.9950393985180028  0.9950393985180028  0.5049606014819972
  0.9950393985180028  0.5049606014819972  0.9950393985180028
  0.9950393985180028  0.5049606014819972  0.5049606014819972
 
  0.00000000E+00  0.00000000E+00  0.00000000E+00
  0.00000000E+00  0.00000000E+00  0.00000000E+00
  0.00000000E+00  0.00000000E+00  0.00000000E+00
  0.00000000E+00  0.00000000E+00  0.00000000E+00
  0.00000000E+00  0.00000000E+00  0.00000000E+00
  0.00000000E+00  0.00000000E+00  0.00000000E+00
  0.00000000E+00  0.00000000E+00  0.00000000E+00
  0.00000000E+00  0.00000000E+00  0.00000000E+00
  0.00000000E+00  0.00000000E+00  0.00000000E+00
  0.00000000E+00  0.00000000E+00  0.00000000E+00
