Cs2 Na1 Sb1 Cl6                         
   1.00000000000000     
     5.3604471871400001    5.3604471871400001    0.0000000000000000
     5.3604471871400001    0.0000000000000000   -5.3604471871400001
     0.0000000000000000    5.3604471871400001   -5.3604471871400001
   Cs   Br   Cu   Ga
     2     6     1     1
Direct
  0.0000000000000000  0.0000000000000000  0.0000000000000000
  0.5000000000000000  0.5000000000000000  0.5000000000000000
  0.5022688756000022  0.5022688756000022  0.9977311243999978
  0.5022688756000022  0.9977311243999978  0.5022688756000022
  0.5022688756000022  0.9977311243999978  0.9977311243999978
  0.9977311243999978  0.9977311243999978  0.5022688756000022
  0.9977311243999978  0.5022688756000022  0.9977311243999978
  0.9977311243999978  0.5022688756000022  0.5022688756000022
  0.2500000000000000  0.2500000000000000  0.2500000000000000
  0.7500000000000000  0.7500000000000000  0.7500000000000000
 
  0.00000000E+00  0.00000000E+00  0.00000000E+00
  0.00000000E+00  0.00000000E+00  0.00000000E+00
  0.00000000E+00  0.00000000E+00  0.00000000E+00
  0.00000000E+00  0.00000000E+00  0.00000000E+00
  0.00000000E+00  0.00000000E+00  0.00000000E+00
  0.00000000E+00  0.00000000E+00  0.00000000E+00
  0.00000000E+00  0.00000000E+00  0.00000000E+00
  0.00000000E+00  0.00000000E+00  0.00000000E+00
  0.00000000E+00  0.00000000E+00  0.00000000E+00
  0.00000000E+00  0.00000000E+00  0.00000000E+00
