Cs2 Na1 Sb1 Cl6                         
   1.00000000000000     
     5.1482127606099999    5.1482127606099999    0.0000000000000000
     5.1482127606099999    0.0000000000000000   -5.1482127606099999
     0.0000000000000000    5.1482127606099999   -5.1482127606099999
   Rb   Ag   Ga   Cl
     2     1     1     6
Direct
  0.0000000000000000  0.0000000000000000  0.0000000000000000
  0.5000000000000000  0.5000000000000000  0.5000000000000000
  0.2500000000000000  0.2500000000000000  0.2500000000000000
  0.7500000000000000  0.7500000000000000  0.7500000000000000
  0.5156799612939977  0.5156799612939977  0.9843200387060023
  0.5156799612939977  0.9843200387060023  0.5156799612939977
  0.5156799612939977  0.9843200387060023  0.9843200387060023
  0.9843200387060023  0.9843200387060023  0.5156799612939977
  0.9843200387060023  0.5156799612939977  0.9843200387060023
  0.9843200387060023  0.5156799612939977  0.5156799612939977
 
  0.00000000E+00  0.00000000E+00  0.00000000E+00
  0.00000000E+00  0.00000000E+00  0.00000000E+00
  0.00000000E+00  0.00000000E+00  0.00000000E+00
  0.00000000E+00  0.00000000E+00  0.00000000E+00
  0.00000000E+00  0.00000000E+00  0.00000000E+00
  0.00000000E+00  0.00000000E+00  0.00000000E+00
  0.00000000E+00  0.00000000E+00  0.00000000E+00
  0.00000000E+00  0.00000000E+00  0.00000000E+00
  0.00000000E+00  0.00000000E+00  0.00000000E+00
  0.00000000E+00  0.00000000E+00  0.00000000E+00
