Cs2 Na1 Sb1 Cl6                         
   1.00000000000000     
     5.4703359314100002    5.4703359314100002    0.0000000000000000
     5.4703359314100002    0.0000000000000000   -5.4703359314100002
     0.0000000000000000    5.4703359314100002   -5.4703359314100002
   Cs   Cu   Br   In
     2     1     6     1
Direct
  0.0000000000000000  0.0000000000000000  0.0000000000000000
  0.5000000000000000  0.5000000000000000  0.5000000000000000
  0.2500000000000000  0.2500000000000000  0.2500000000000000
  0.4958460423439988  0.4958460423439988  0.0041539576556673
  0.4958460423439988  0.0041539576556673  0.4958460423439988
  0.4958460423439988  0.0041539576556673  0.0041539576556673
  0.0041539576556673  0.0041539576556673  0.4958460423439988
  0.0041539576556673  0.4958460423439988  0.0041539576556673
  0.0041539576556673  0.4958460423439988  0.4958460423439988
  0.7500000000000000  0.7500000000000000  0.7500000000000000
 
  0.00000000E+00  0.00000000E+00  0.00000000E+00
  0.00000000E+00  0.00000000E+00  0.00000000E+00
  0.00000000E+00  0.00000000E+00  0.00000000E+00
  0.00000000E+00  0.00000000E+00  0.00000000E+00
  0.00000000E+00  0.00000000E+00  0.00000000E+00
  0.00000000E+00  0.00000000E+00  0.00000000E+00
  0.00000000E+00  0.00000000E+00  0.00000000E+00
  0.00000000E+00  0.00000000E+00  0.00000000E+00
  0.00000000E+00  0.00000000E+00  0.00000000E+00
  0.00000000E+00  0.00000000E+00  0.00000000E+00
