Cs2 Na1 Sb1 Cl6                         
   1.00000000000000     
     5.9806284823900002    5.9806284823900002    0.0000000000000000
     5.9806284823900002    0.0000000000000000   -5.9806284823900002
     0.0000000000000000    5.9806284823900002   -5.9806284823900002
   I    Ag   Rb   In
     6     1     2     1
Direct
  0.5013383248640011  0.5013383248640011  0.9986616751359989
  0.5013383248640011  0.9986616751359989  0.5013383248640011
  0.5013383248640011  0.9986616751359989  0.9986616751359989
  0.9986616751359989  0.9986616751359989  0.5013383248640011
  0.9986616751359989  0.5013383248640011  0.9986616751359989
  0.9986616751359989  0.5013383248640011  0.5013383248640011
  0.2500000000000000  0.2500000000000000  0.2500000000000000
  0.0000000000000000  0.0000000000000000  0.0000000000000000
  0.5000000000000000  0.5000000000000000  0.5000000000000000
  0.7500000000000000  0.7500000000000000  0.7500000000000000
 
  0.00000000E+00  0.00000000E+00  0.00000000E+00
  0.00000000E+00  0.00000000E+00  0.00000000E+00
  0.00000000E+00  0.00000000E+00  0.00000000E+00
  0.00000000E+00  0.00000000E+00  0.00000000E+00
  0.00000000E+00  0.00000000E+00  0.00000000E+00
  0.00000000E+00  0.00000000E+00  0.00000000E+00
  0.00000000E+00  0.00000000E+00  0.00000000E+00
  0.00000000E+00  0.00000000E+00  0.00000000E+00
  0.00000000E+00  0.00000000E+00  0.00000000E+00
  0.00000000E+00  0.00000000E+00  0.00000000E+00
