Cs2 Na1 Sb1 Cl6                         
   1.00000000000000     
     5.7421401213800003    5.7421401213800003    0.0000000000000000
     5.7421401213800003    0.0000000000000000   -5.7421401213800003
     0.0000000000000000    5.7421401213800003   -5.7421401213800003
   I    Ga   Cu   Rb
     6     1     1     2
Direct
  0.4977747202069978  0.4977747202069978  0.0022252797928033
  0.4977747202069978  0.0022252797928033  0.4977747202069978
  0.4977747202069978  0.0022252797928033  0.0022252797928033
  0.0022252797928033  0.0022252797928033  0.4977747202069978
  0.0022252797928033  0.4977747202069978  0.0022252797928033
  0.0022252797928033  0.4977747202069978  0.4977747202069978
  0.7500000000000000  0.7500000000000000  0.7500000000000000
  0.2500000000000000  0.2500000000000000  0.2500000000000000
  0.0000000000000000  0.0000000000000000  0.0000000000000000
  0.5000000000000000  0.5000000000000000  0.5000000000000000
 
  0.00000000E+00  0.00000000E+00  0.00000000E+00
  0.00000000E+00  0.00000000E+00  0.00000000E+00
  0.00000000E+00  0.00000000E+00  0.00000000E+00
  0.00000000E+00  0.00000000E+00  0.00000000E+00
  0.00000000E+00  0.00000000E+00  0.00000000E+00
  0.00000000E+00  0.00000000E+00  0.00000000E+00
  0.00000000E+00  0.00000000E+00  0.00000000E+00
  0.00000000E+00  0.00000000E+00  0.00000000E+00
  0.00000000E+00  0.00000000E+00  0.00000000E+00
  0.00000000E+00  0.00000000E+00  0.00000000E+00
