Cs2 Na1 Sb1 Cl6                         
   1.00000000000000     
     6.0128921985400003    6.0128921985400003    0.0000000000000000
     6.0128921985400003    0.0000000000000000   -6.0128921985400003
     0.0000000000000000    6.0128921985400003   -6.0128921985400003
   Cs   I    Ag   In
     2     6     1     1
Direct
  0.0000000000000000  0.0000000000000000  0.0000000000000000
  0.5000000000000000  0.5000000000000000  0.5000000000000000
  0.5016640896349998  0.5016640896349998  0.9983359103650002
  0.5016640896349998  0.9983359103650002  0.5016640896349998
  0.5016640896349998  0.9983359103650002  0.9983359103650002
  0.9983359103650002  0.9983359103650002  0.5016640896349998
  0.9983359103650002  0.5016640896349998  0.9983359103650002
  0.9983359103650002  0.5016640896349998  0.5016640896349998
  0.2500000000000000  0.2500000000000000  0.2500000000000000
  0.7500000000000000  0.7500000000000000  0.7500000000000000
 
  0.00000000E+00  0.00000000E+00  0.00000000E+00
  0.00000000E+00  0.00000000E+00  0.00000000E+00
  0.00000000E+00  0.00000000E+00  0.00000000E+00
  0.00000000E+00  0.00000000E+00  0.00000000E+00
  0.00000000E+00  0.00000000E+00  0.00000000E+00
  0.00000000E+00  0.00000000E+00  0.00000000E+00
  0.00000000E+00  0.00000000E+00  0.00000000E+00
  0.00000000E+00  0.00000000E+00  0.00000000E+00
  0.00000000E+00  0.00000000E+00  0.00000000E+00
  0.00000000E+00  0.00000000E+00  0.00000000E+00
