Cs2 Na1 Sb1 Cl6                         
   1.00000000000000     
     5.8917829550900001    5.8917829550900001    0.0000000000000000
     5.8917829550900001    0.0000000000000000   -5.8917829550900001
     0.0000000000000000    5.8917829550900001   -5.8917829550900001
   Cs   I    Cu   In
     2     6     1     1
Direct
  0.0000000000000000  0.0000000000000000  0.0000000000000000
  0.5000000000000000  0.5000000000000000  0.5000000000000000
  0.4935538706389977  0.4935538706389977  0.0064461293611018
  0.4935538706389977  0.0064461293611018  0.4935538706389977
  0.4935538706389977  0.0064461293611018  0.0064461293611018
  0.0064461293611018  0.0064461293611018  0.4935538706389977
  0.0064461293611018  0.4935538706389977  0.0064461293611018
  0.0064461293611018  0.4935538706389977  0.4935538706389977
  0.2500000000000000  0.2500000000000000  0.2500000000000000
  0.7500000000000000  0.7500000000000000  0.7500000000000000
 
  0.00000000E+00  0.00000000E+00  0.00000000E+00
  0.00000000E+00  0.00000000E+00  0.00000000E+00
  0.00000000E+00  0.00000000E+00  0.00000000E+00
  0.00000000E+00  0.00000000E+00  0.00000000E+00
  0.00000000E+00  0.00000000E+00  0.00000000E+00
  0.00000000E+00  0.00000000E+00  0.00000000E+00
  0.00000000E+00  0.00000000E+00  0.00000000E+00
  0.00000000E+00  0.00000000E+00  0.00000000E+00
  0.00000000E+00  0.00000000E+00  0.00000000E+00
  0.00000000E+00  0.00000000E+00  0.00000000E+00
