Cs2 Na1 Sb1 Cl6                         
   1.00000000000000     
     5.4926965241700003    5.4926965241700003    0.0000000000000000
     5.4926965241700003    0.0000000000000000   -5.4926965241700003
     0.0000000000000000    5.4926965241700003   -5.4926965241700003
   Cs   Br   Ag   Ga
     2     6     1     1
Direct
  0.0000000000000000  0.0000000000000000  0.0000000000000000
  0.5000000000000000  0.5000000000000000  0.5000000000000000
  0.5128241949599968  0.5128241949599968  0.9871758050400032
  0.5128241949599968  0.9871758050400032  0.5128241949599968
  0.5128241949599968  0.9871758050400032  0.9871758050400032
  0.9871758050400032  0.9871758050400032  0.5128241949599968
  0.9871758050400032  0.5128241949599968  0.9871758050400032
  0.9871758050400032  0.5128241949599968  0.5128241949599968
  0.2500000000000000  0.2500000000000000  0.2500000000000000
  0.7500000000000000  0.7500000000000000  0.7500000000000000
 
  0.00000000E+00  0.00000000E+00  0.00000000E+00
  0.00000000E+00  0.00000000E+00  0.00000000E+00
  0.00000000E+00  0.00000000E+00  0.00000000E+00
  0.00000000E+00  0.00000000E+00  0.00000000E+00
  0.00000000E+00  0.00000000E+00  0.00000000E+00
  0.00000000E+00  0.00000000E+00  0.00000000E+00
  0.00000000E+00  0.00000000E+00  0.00000000E+00
  0.00000000E+00  0.00000000E+00  0.00000000E+00
  0.00000000E+00  0.00000000E+00  0.00000000E+00
  0.00000000E+00  0.00000000E+00  0.00000000E+00
