Cs2 Na1 Sb1 Cl6                         
   1.00000000000000     
     5.1858241600800001    5.1858241600800001    0.0000000000000000
     5.1858241600800001    0.0000000000000000   -5.1858241600800001
     0.0000000000000000    5.1858241600800001   -5.1858241600800001
   Cs   In   Cu   Cl
     2     1     1     6
Direct
  0.0000000000000000  0.0000000000000000  0.0000000000000000
  0.5000000000000000  0.5000000000000000  0.5000000000000000
  0.7500000000000000  0.7500000000000000  0.7500000000000000
  0.2500000000000000  0.2500000000000000  0.2500000000000000
  0.4981783177549985  0.4981783177549985  0.0018216822450299
  0.4981783177549985  0.0018216822450299  0.4981783177549985
  0.4981783177549985  0.0018216822450299  0.0018216822450299
  0.0018216822450299  0.0018216822450299  0.4981783177549985
  0.0018216822450299  0.4981783177549985  0.0018216822450299
  0.0018216822450299  0.4981783177549985  0.4981783177549985
 
  0.00000000E+00  0.00000000E+00  0.00000000E+00
  0.00000000E+00  0.00000000E+00  0.00000000E+00
  0.00000000E+00  0.00000000E+00  0.00000000E+00
  0.00000000E+00  0.00000000E+00  0.00000000E+00
  0.00000000E+00  0.00000000E+00  0.00000000E+00
  0.00000000E+00  0.00000000E+00  0.00000000E+00
  0.00000000E+00  0.00000000E+00  0.00000000E+00
  0.00000000E+00  0.00000000E+00  0.00000000E+00
  0.00000000E+00  0.00000000E+00  0.00000000E+00
  0.00000000E+00  0.00000000E+00  0.00000000E+00
