ENCUT = 325.0
LCHARG = True
LPLANE = True
EDIFF = 1e-05
ISMEAR = 0
NSW = 30
ISTART = 0
SYSTEM = jump2
PREC =  Normal
ICHARG = 2
EDIFFG = -0.01
LORBIT = 11
KSPACING = 0.23
LREAL = Auto
ADDGRID = True
IBRION = 2
NPAR = 4
AMIN = 0.01
LVHAR = False
LVTOT = False
NLEM = 100
ISIF = 3
ALGO = 48
LWAVE = False
SIGMA = 0.1
