Cs2 Na1 Sb1 Cl6                         
   1.00000000000000     
     1.4336101018797895    0.0000000000000000    0.0000000000000001
     0.0000000000000000    1.4336101018797895    0.0000000000000000
     0.0000000000000000   -0.0000000000000001    1.4336101018797895
   H 
     1
Direct
  0.0000000000000000  0.0000000000000000  0.0000000000000000
 
  0.00000000E+00  0.00000000E+00  0.00000000E+00
