ENCUT = 325.0
LCHARG = True
LPLANE = True
EDIFF = 0.0001
ISMEAR = -5
NSW = 0
ISTART = 0
SYSTEM = jump2
PREC =  Normal
ICHARG = 1
EDIFFG = -0.01
LORBIT = 11
KSPACING = 0.23
LREAL = Auto
ADDGRID = True
IBRION = -1
NPAR = 4
AMIN = 0.01
LVHAR = False
LVTOT = False
NLEM = 100
ISIF = 2
ALGO = 48
LWAVE = True
SIGMA = 0.1
