band
20
line mode
reciporcal
      0.50000000       0.00000000       0.00000000 ! R+
      0.00000000       0.50000000       0.00000000 ! X