NEDOS = 2001
ENCUT = 325.0
LCHARG = False
LPLANE = True
EDIFF = 0.0001
ISMEAR = 0
NSW = 0
ISTART = 1
SYSTEM = jump2
PREC = Normal
ICHARG = 11
EDIFFG = -0.01
LORBIT = 11
NELM = 100
LREAL = Auto
ADDGRID = True
IBRION = -1
NPAR = 4
AMIN = 0.01
LVHAR = False
LVTOT = False
NLEM = 100
ISIF = 2
ALGO = veryfast
NBANDS = 8
LWAVE = True
SIGMA = 0.1
