band
20
line mode
reciporcal
      0.00000000       0.00000000       0.00000000 ! \Gamma+
      0.50000000       0.00000000       0.00000000 ! R