Cs2 Na1 Sb1 Cl6                         
   1.00000000000000     
     5.4215754659000002    0.0    0.0000000000000000
     0.0                   5.4215754659000002 0.0
     0.0000000000000000    0.0   5.4215754659000002
     H    
     1  
Direct
  0. 0. 0.
