Fe Sb Sn                                
   1.00000000000000     
    -4.4756826441181170    4.5228544969010676    4.4930017400884115
     4.4754295878631067   -4.5993168021683788    4.5692772923982412
     4.4752344174964174    4.5996622817918613   -4.5690657726875354
   Fe   Sb   Sn
     4    12     1
Direct
  0.5182411216124273  0.0028299732533276  0.0050015151492915
  0.0146067847009748  0.4974496970751656  0.0041629582317332
  0.0146065074076699  0.0043365060862849  0.5110490774861796
  0.5182495470257845  0.5071437403733832  0.5093136631022263
  0.4573550316339405  0.1607076890451850  0.2905451100169456
  0.1618145115783628  0.8413288176286670  0.3143815797892114
  0.3449708788090936  0.4952371212819919  0.1697407730238319
  0.3449570771915139  0.1691170629809116  0.8436341561937196
  0.1749108145294814  0.3346837975252208  0.5027216203490149
  0.8591306128292495  0.3401029208047481  0.1834757701502221
  0.4793205963313026  0.8329630769011174  0.6402582211269449
  0.8742143127260403  0.1547764508840951  0.7133294853708328
  0.6702220683116156  0.4682136500932195  0.8213510351430336
  0.6702396534801914  0.8427715944987852  0.1958820997029448
  0.8591269698958190  0.6695296844960793  0.5128916849017724
  0.1749079777435218  0.6660792272227325  0.8341166566672069
  0.8636306539807926  0.9109982121325306  0.9464419574837704
 
  0.00000000E+00  0.00000000E+00  0.00000000E+00
  0.00000000E+00  0.00000000E+00  0.00000000E+00
  0.00000000E+00  0.00000000E+00  0.00000000E+00
  0.00000000E+00  0.00000000E+00  0.00000000E+00
  0.00000000E+00  0.00000000E+00  0.00000000E+00
  0.00000000E+00  0.00000000E+00  0.00000000E+00
  0.00000000E+00  0.00000000E+00  0.00000000E+00
  0.00000000E+00  0.00000000E+00  0.00000000E+00
  0.00000000E+00  0.00000000E+00  0.00000000E+00
  0.00000000E+00  0.00000000E+00  0.00000000E+00
  0.00000000E+00  0.00000000E+00  0.00000000E+00
  0.00000000E+00  0.00000000E+00  0.00000000E+00
  0.00000000E+00  0.00000000E+00  0.00000000E+00
  0.00000000E+00  0.00000000E+00  0.00000000E+00
  0.00000000E+00  0.00000000E+00  0.00000000E+00
  0.00000000E+00  0.00000000E+00  0.00000000E+00
  0.00000000E+00  0.00000000E+00  0.00000000E+00
