Cs2 Na1 Sb1 Cl6                         
  1.00000000
      1.435360550143      -0.000000000000       0.000000000000
      0.000000000000       1.435360550143      -0.000000000000
      0.000000000000       0.000000000000       1.435360550143
H     
1     
Direct
  0.0000000000000000   0.0000000000000000   0.0000000000000000
