CIS                                     
   1.00000000000000     
     7.5102158025656927   -0.0000000006752289   -0.0000000000000000
     0.0000000006752289    7.5102158025656927   -0.0000000000000000
     0.0000000000000000    0.0000000000000000   10.5605949909040255
   Cs   Zn   Sn   Ag   Cl
     4     1     1     2    12
Direct
  0.5000000000000000  0.0000000000000000  0.2329584953517665
  0.5000000000000000  0.0000000000000000  0.7670415046482333
  0.0000000000000000  0.5000000000000000  0.2329584953517665
  0.0000000000000000  0.5000000000000000  0.7670415046482333
  0.5000000000000000  0.5000000000000000  0.0000000000000000
  0.0000000000000000  0.0000000000000000  0.5000000000000000
  0.5000000000000000  0.5000000000000000  0.5000000000000000
  0.0000000000000000  0.0000000000000000  0.0000000000000000
  0.7328704441969521  0.2671293945363661  0.0000000000000000
  0.2671295558030481  0.7328705754636318  0.0000000000000000
  0.7328705754636318  0.7328704441969521  0.0000000000000000
  0.2671293945363661  0.2671295558030481  0.0000000000000000
  0.2325193083674424  0.7674725775214880  0.5000000000000000
  0.7674806916325577  0.2325274224785121  0.5000000000000000
  0.2325274224785121  0.2325193083674424  0.5000000000000000
  0.7674725775214880  0.7674806916325577  0.5000000000000000
  0.5000000000000000  0.5000000000000000  0.7377307710858624
  0.5000000000000000  0.5000000000000000  0.2622692289141373
  0.0000000000000000  0.0000000000000000  0.2608670401674849
  0.0000000000000000  0.0000000000000000  0.7391329598325151
 
  0.00000000E+00  0.00000000E+00  0.00000000E+00
  0.00000000E+00  0.00000000E+00  0.00000000E+00
  0.00000000E+00  0.00000000E+00  0.00000000E+00
  0.00000000E+00  0.00000000E+00  0.00000000E+00
  0.00000000E+00  0.00000000E+00  0.00000000E+00
  0.00000000E+00  0.00000000E+00  0.00000000E+00
  0.00000000E+00  0.00000000E+00  0.00000000E+00
  0.00000000E+00  0.00000000E+00  0.00000000E+00
  0.00000000E+00  0.00000000E+00  0.00000000E+00
  0.00000000E+00  0.00000000E+00  0.00000000E+00
  0.00000000E+00  0.00000000E+00  0.00000000E+00
  0.00000000E+00  0.00000000E+00  0.00000000E+00
  0.00000000E+00  0.00000000E+00  0.00000000E+00
  0.00000000E+00  0.00000000E+00  0.00000000E+00
  0.00000000E+00  0.00000000E+00  0.00000000E+00
  0.00000000E+00  0.00000000E+00  0.00000000E+00
  0.00000000E+00  0.00000000E+00  0.00000000E+00
  0.00000000E+00  0.00000000E+00  0.00000000E+00
  0.00000000E+00  0.00000000E+00  0.00000000E+00
  0.00000000E+00  0.00000000E+00  0.00000000E+00
